c description: Random 3-CNF over 16 variables and 68 clauses
c generator: CNFgen (0.9.2)
c copyright: (C) 2012-2022 Massimo Lauria <massimo.lauria@uniroma1.it>
c url: https://massimolauria.net/cnfgen
c command line: cnfgen --output CNF_4.28/16_bit_68_279.cnf randkcnf 3 16 68
c
p cnf 16 68
-1 8 15 0
-4 -7 -10 0
-7 8 -15 0
-5 -7 -12 0
-2 4 16 0
-7 8 -9 0
6 -15 -16 0
8 -12 16 0
1 -9 -13 0
-5 10 -12 0
-4 12 13 0
-3 6 15 0
3 -7 -12 0
-2 10 12 0
1 2 3 0
-3 7 16 0
2 4 15 0
5 14 -15 0
2 3 -12 0
-2 -7 11 0
7 12 -16 0
-3 9 10 0
4 6 10 0
-3 13 -14 0
5 -14 16 0
10 11 12 0
-2 -9 16 0
-1 4 -9 0
-1 -8 -11 0
-4 -12 -13 0
-3 9 -10 0
8 -9 -12 0
-1 2 6 0
6 -12 14 0
1 -5 -10 0
5 13 -15 0
3 11 -16 0
-3 -10 -11 0
1 5 13 0
5 6 -16 0
5 15 -16 0
6 -8 -11 0
-2 -4 15 0
5 -8 -16 0
4 7 11 0
8 -13 14 0
2 3 15 0
-4 14 -15 0
-1 -7 -14 0
1 3 -10 0
-2 -10 -11 0
-4 -13 -15 0
5 6 -15 0
-8 -10 16 0
4 -14 16 0
-2 5 10 0
3 -7 -13 0
3 -15 16 0
1 11 -16 0
-2 -7 9 0
4 -7 -8 0
3 -6 -10 0
-1 -2 -12 0
-1 -7 -12 0
-2 4 14 0
-4 5 -13 0
-3 -4 13 0
-5 -7 9 0
